14
-1 74 97 53 73 36 29 75 42 72 99 73 69 48 
15 -1 21 97 9 92 61 24 96 18 41 58 33 56 
63 22 -1 16 91 88 19 23 44 1 20 90 79 73 
43 85 12 -1 41 91 35 31 89 76 83 94 33 77 
8 13 32 12 -1 20 13 32 16 30 90 22 35 28 
84 59 13 86 47 -1 20 48 77 89 89 38 26 2 
28 4 22 66 4 48 -1 70 32 76 57 39 75 98 
9 68 89 11 52 91 49 -1 93 88 52 1 7 72 
59 53 67 80 29 39 45 17 -1 10 83 35 73 90 
9 84 74 32 64 94 67 62 85 -1 31 23 42 96 
62 21 8 14 70 63 13 53 22 7 -1 35 20 93 
51 63 82 17 8 59 56 16 45 52 20 -1 79 1 
63 41 8 30 22 37 87 12 21 2 93 69 -1 89 
28 95 90 94 97 3 74 40 50 34 25 59 26 -1 
